<number of tasks>
250

<cycle time>
1000

<order strength>
0.897


<task times>
1 210
2 126
3 219
4 107
5 118
6 87
7 138
8 158
9 132
10 149
11 181
12 177
13 116
14 143
15 109
16 36
17 145
18 78
19 118
20 142
21 105
22 91
23 231
24 234
25 82
26 240
27 48
28 45
29 118
30 83
31 122
32 43
33 244
34 184
35 184
36 106
37 106
38 233
39 102
40 144
41 78
42 107
43 268
44 112
45 171
46 82
47 209
48 101
49 39
50 134
51 113
52 267
53 175
54 282
55 154
56 243
57 133
58 38
59 91
60 69
61 231
62 39
63 155
64 70
65 241
66 215
67 32
68 235
69 220
70 28
71 259
72 63
73 89
74 116
75 60
76 172
77 266
78 207
79 41
80 158
81 249
82 76
83 96
84 56
85 38
86 182
87 104
88 35
89 154
90 233
91 157
92 175
93 40
94 131
95 136
96 226
97 37
98 154
99 117
100 216
101 120
102 93
103 130
104 70
105 218
106 192
107 151
108 88
109 181
110 127
111 34
112 204
113 188
114 197
115 52
116 284
117 112
118 176
119 74
120 148
121 218
122 287
123 91
124 73
125 139
126 197
127 137
128 121
129 155
130 65
131 228
132 224
133 107
134 88
135 176
136 60
137 108
138 110
139 124
140 94
141 35
142 25
143 49
144 352
145 60
146 166
147 172
148 25
149 192
150 232
151 338
152 99
153 199
154 65
155 183
156 49
157 34
158 76
159 234
160 177
161 84
162 46
163 96
164 255
165 133
166 35
167 119
168 186
169 231
170 47
171 41
172 275
173 93
174 177
175 141
176 32
177 124
178 277
179 184
180 30
181 159
182 147
183 45
184 78
185 106
186 326
187 172
188 42
189 205
190 176
191 73
192 78
193 290
194 111
195 161
196 53
197 276
198 93
199 66
200 182
201 201
202 43
203 117
204 66
205 259
206 300
207 176
208 147
209 70
210 143
211 141
212 82
213 56
214 225
215 49
216 46
217 303
218 21
219 93
220 87
221 41
222 130
223 160
224 73
225 56
226 82
227 353
228 289
229 140
230 181
231 37
232 139
233 129
234 188
235 166
236 24
237 109
238 215
239 318
240 89
241 203
242 75
243 175
244 214
245 45
246 93
247 21
248 229
249 79
250 27

<precedence relations>
1,5
2,5
2,6
3,5
3,6
3,7
3,8
4,5
5,9
5,10
5,11
5,14
6,9
6,10
6,11
6,12
6,13
7,11
7,14
8,9
8,10
8,11
8,12
8,13
8,14
9,15
9,16
9,17
9,18
9,19
10,15
10,16
10,17
10,18
10,19
11,15
11,16
11,17
11,18
11,19
12,15
12,16
12,17
12,18
12,19
13,15
13,16
13,17
13,18
14,15
15,20
15,21
15,22
15,23
15,24
16,20
16,21
16,23
17,20
17,21
17,22
17,23
17,24
18,20
18,21
18,22
18,23
18,24
19,20
19,21
19,22
19,23
19,24
20,25
20,33
21,25
21,26
21,27
21,28
22,25
22,26
22,27
22,28
23,25
23,26
23,27
23,28
24,26
24,27
25,29
25,30
25,31
25,32
26,29
26,30
26,31
26,32
26,33
27,29
27,30
27,31
27,32
27,33
28,29
28,30
28,31
28,32
28,33
29,34
29,35
29,36
29,37
29,38
29,39
30,34
30,35
30,36
30,38
30,39
31,38
31,39
32,34
32,35
32,36
32,37
32,38
32,39
33,34
33,35
33,36
33,37
33,38
33,39
34,40
34,41
34,42
34,43
34,44
34,45
35,40
35,41
35,42
35,43
35,44
35,45
36,40
36,41
36,42
36,43
36,44
36,45
37,40
37,41
37,42
37,43
37,44
37,45
38,40
38,41
38,42
38,43
38,44
38,45
39,40
39,41
39,42
39,43
39,44
39,45
40,46
40,47
40,48
41,46
41,47
41,48
42,46
42,47
42,48
43,46
43,47
43,48
44,46
44,47
44,48
45,46
45,47
45,48
46,49
46,50
46,51
47,49
47,50
47,51
48,49
48,50
48,51
49,52
49,53
49,54
49,55
49,56
49,57
50,52
50,53
50,54
50,55
50,56
50,57
51,52
51,53
51,54
51,55
51,56
52,58
52,59
52,60
52,61
52,62
53,58
53,62
54,60
54,61
54,62
55,58
55,59
55,60
55,61
55,62
56,58
56,59
56,60
56,61
56,62
57,58
57,59
58,63
58,64
58,65
58,66
58,67
59,63
59,104
60,63
60,64
60,65
60,66
60,67
61,63
61,64
61,67
62,63
63,101
63,106
63,107
64,68
64,69
64,70
65,68
65,69
65,70
66,68
66,69
66,70
67,68
67,69
67,70
68,71
68,72
68,73
69,71
69,72
69,73
70,71
70,72
70,73
71,74
71,75
71,76
71,77
72,74
72,75
72,76
72,77
73,74
73,75
73,76
73,77
74,78
74,79
74,80
74,81
74,82
75,78
75,79
75,80
75,81
75,82
76,78
76,79
76,80
76,81
76,82
77,78
77,79
78,83
79,83
79,85
80,83
80,84
80,85
81,83
81,84
81,85
82,83
82,84
82,85
83,86
83,87
83,88
83,89
83,90
84,86
84,87
84,88
84,89
84,90
85,86
85,87
85,88
85,89
85,90
86,91
86,92
86,93
86,94
86,95
87,91
87,92
87,93
87,94
87,95
88,91
88,92
88,93
88,94
88,95
89,91
89,92
89,93
89,94
89,95
90,91
91,97
91,98
91,99
91,100
92,96
92,97
92,98
92,99
92,104
93,96
93,97
93,100
94,98
94,110
95,96
96,101
96,102
96,105
97,101
97,105
98,102
99,105
100,101
100,102
100,103
100,104
100,105
101,108
101,109
101,110
102,106
102,107
103,106
103,107
103,108
103,110
104,106
105,106
105,109
105,110
106,111
106,112
107,111
107,112
107,113
107,114
108,111
108,112
108,113
108,114
109,111
110,111
110,119
111,115
111,116
111,117
111,118
112,119
112,126
112,138
113,115
113,120
113,153
114,115
114,116
114,117
115,121
115,123
116,121
116,122
116,123
116,124
116,125
117,123
117,127
117,141
118,161
119,127
119,133
120,124
120,141
120,145
121,129
121,145
122,126
122,128
123,126
124,126
124,127
124,158
125,126
126,132
127,162
128,131
128,133
129,130
129,134
130,136
131,139
131,141
131,149
132,135
132,136
132,142
132,147
133,135
133,136
133,137
133,140
134,138
135,144
135,148
135,152
136,144
137,145
137,148
138,142
138,147
138,158
139,142
139,143
140,142
140,143
140,144
140,146
141,162
141,180
141,181
142,148
142,150
142,152
143,148
143,153
144,151
145,201
145,210
145,223
146,148
146,149
147,163
147,175
148,154
148,155
148,156
148,157
149,157
150,159
150,160
150,168
151,154
151,156
151,171
152,174
153,154
153,155
153,158
154,159
154,160
155,162
156,159
156,211
157,160
157,161
158,224
158,225
159,207
159,242
159,249
160,165
160,166
160,167
160,169
161,164
161,168
161,182
162,163
162,168
163,170
163,171
164,170
165,172
165,173
166,184
166,190
167,174
167,186
168,170
168,171
168,172
169,175
169,187
169,212
170,176
171,179
172,184
173,176
173,177
174,176
174,181
175,222
175,229
175,244
175,250
176,178
176,179
176,189
177,180
177,181
178,204
179,183
180,182
180,184
181,185
181,212
181,220
181,240
182,206
182,219
183,187
183,193
184,186
185,187
185,188
186,189
186,191
187,190
187,196
188,227
189,192
189,193
190,198
190,199
190,203
191,229
191,230
192,194
192,197
193,195
193,196
193,201
194,198
194,200
194,204
195,198
195,199
195,210
195,231
196,203
196,244
197,201
197,202
198,206
198,249
200,208
201,207
201,241
202,205
202,206
202,208
204,208
205,235
205,237
206,233
207,212
208,209
208,210
209,214
210,211
210,212
210,213
210,215
210,222
211,218
212,247
213,216
214,217
215,248
216,220
217,219
217,221
217,222
219,247
220,224
221,223
222,235
223,225
223,228
223,229
224,226
224,227
224,230
224,232
225,231
225,241
225,242
226,234
226,235
226,245
228,233
228,234
228,243
229,232
229,246
230,243
231,237
232,238
232,239
233,236
236,242
237,240
239,241
239,243
240,246
241,248
242,244
242,245
243,247
245,250
248,249

<end>
